
  32    4
  10   10   10   10

   0   0   0   0   0  10 2 3 5 6 8 9 10 12 13 31 
   3  10  10  10  10   4 30 26 11 4 
   6  10  10  10  10   7 30 26 25 18 16 15 11 
   5  10  10  10  10   5 28 27 24 17 7 
  10  10  10  10  10   7 26 25 23 22 21 19 17 
   7  10  10  10  10   6 24 23 22 17 16 15 
   4  10  10  10  10   4 25 22 15 14 
   5  10  10  10  10   5 26 25 24 22 18 
   9  10  10  10  10   5 28 27 24 23 20 
   3  10  10  10  10   4 23 22 21 15 
   5  10  10  10  10   4 24 23 22 21 
   7  10  10  10  10   3 29 27 26 
   1  10  10  10  10   3 29 22 21 
   1  10  10  10  10   1 16 
   1  10  10  10  10   1 20 
  10  10  10  10  10   1 21 
   9  10  10  10  10   1 20 
   7  10  10  10  10   1 20 
   9  10  10  10  10   1 20 
   8  10  10  10  10   1 32
   9  10  10  10  10   1 32
   5  10  10  10  10   1 32
   5  10  10  10  10   1 32
   1  10  10  10  10   1 32
   7  10  10  10  10   1 32
   5  10  10  10  10   1 32
   9  10  10  10  10   1 32
   2  10  10  10  10   1 32
   3  10  10  10  10   1 32
   4  10  10  10  10   1 32
   9  10  10  10  10   1 32
   0   0   0   0   0   0 
